log/Reading instance from file data/g05.dat
Number of nodes: 101
Number of edges: 400
initialize CPLEX ... done.
Calling CPLEX solve ...
Version identifier: 12.10.0.0 | 2019-11-26 | 843d4de
CPXPARAM_Threads                                 1
CPXPARAM_TimeLimit                               3600
CPXPARAM_WorkMem                                 8192
Tried aggregator 2 times.
MIP Presolve eliminated 151 rows and 200 columns.
MIP Presolve modified 950 coefficients.
Aggregator did 50 substitutions.
Reduced MIP has 903 rows, 1450 columns, and 4850 nonzeros.
Reduced MIP has 750 binaries, 700 generals, 0 SOSs, and 0 indicators.
Presolve time = 0.01 sec. (6.20 ticks)
Found incumbent of value 24977.000000 after 0.03 sec. (17.43 ticks)
Probing fixed 0 vars, tightened 136 bounds.
Probing time = 0.01 sec. (2.92 ticks)
Cover probing fixed 0 vars, tightened 9 bounds.
Tried aggregator 1 time.
Detecting symmetries...
Reduced MIP has 903 rows, 1450 columns, and 4850 nonzeros.
Reduced MIP has 750 binaries, 700 generals, 0 SOSs, and 0 indicators.
Presolve time = 0.00 sec. (3.15 ticks)
Probing time = 0.00 sec. (2.22 ticks)
Cover probing fixed 0 vars, tightened 91 bounds.
Clique table members: 701.
MIP emphasis: balance optimality and feasibility.
MIP search method: dynamic search.
Parallel mode: none, using 1 thread.
Root relaxation solution time = 0.01 sec. (16.01 ticks)

        Nodes                                         Cuts/
   Node  Left     Objective  IInf  Best Integer    Best Bound    ItCnt     Gap

*     0+    0                        24977.0000        0.0000           100.00%
      0     0     2433.5096    67    24977.0000     2433.5096      488   90.26%
      0     0     2514.3307    67    24977.0000     Cuts: 145      707   89.93%
      0     0     2909.4981    67    24977.0000      Cuts: 69     1043   88.35%
      0     0     3381.5225    67    24977.0000      Cuts: 63     1267   86.46%
      0     0     3475.7675    67    24977.0000      Cuts: 49     1410   86.08%
      0     0     3567.4312    67    24977.0000      Cuts: 28     1526   85.72%
Detecting symmetries...
      0     0     3624.3665    67    24977.0000      Cuts: 34     1645   85.49%
      0     0     3674.6634    67    24977.0000      Cuts: 40     1797   85.29%
      0     0     3699.0883    67    24977.0000      Cuts: 37     1902   85.19%
      0     0     3710.5456    67    24977.0000      Cuts: 31     1998   85.14%
      0     0     3716.9688    67    24977.0000      Cuts: 27     2052   85.12%
*     0+    0                        14976.0000     3716.9688            75.18%
*     0+    0                        14736.0000     3716.9688            74.78%
      0     0  -1.00000e+75     0    14736.0000     3716.9688     2052   74.78%
      0     0     3717.8354    67    14736.0000      Cuts: 12     2063   74.77%
      0     0     3723.2463    67    14736.0000       Cuts: 7     2087   74.73%
      0     0     3723.9559    67    14736.0000       Cuts: 3     2095   74.73%
      0     0     3731.7122    67    14736.0000   ZeroHalf: 1     2109   74.68%
      0     0     3756.7635    67    14736.0000       Cuts: 4     2165   74.51%
      0     0     3757.9999    67    14736.0000      Cuts: 11     2189   74.50%
      0     0     3766.1298    67    14736.0000       Cuts: 6     2233   74.44%
      0     0     3775.0866    67    14736.0000       Cuts: 3     2272   74.38%
      0     0     3775.7459    67    14736.0000       Cuts: 7     2289   74.38%
      0     0     3779.6384    67    14736.0000      Cuts: 15     2314   74.35%
      0     0     3792.5826    67    14736.0000      Cuts: 12     2348   74.26%
      0     0     3793.3061    67    14736.0000      Cuts: 13     2378   74.26%
*     0+    0                         6364.0000     3793.3061            40.39%
*     0+    0                         6199.0000     3793.3061            38.81%
*     0+    0                         6175.0000     3793.3061            38.57%
*     0+    0                         6060.0000     3793.3061            37.40%
      0     0  -1.00000e+75     0     6060.0000     3793.3061     2378   37.40%
Detecting symmetries...
      0     2     3793.3061   188     6060.0000     3793.3212     2378   37.40%
Elapsed time = 0.44 sec. (453.64 ticks, tree = 0.01 MB, solutions = 7)
     52    54     4766.8655    61     6060.0000     3797.5680     6509   37.33%
    176   169     4193.4478    84     6060.0000     3797.8208    10989   37.33%
    317   302     3868.8677   153     6060.0000     3811.3952    15303   37.11%
    364   349     4617.0107   171     6060.0000     3811.3952    18571   37.11%
    432   417     4386.3282    88     6060.0000     3811.3952    22351   37.11%

Performing restart 1

Repeating presolve.
Tried aggregator 1 time.
MIP Presolve modified 831 coefficients.
Reduced MIP has 903 rows, 1450 columns, and 4311 nonzeros.
Reduced MIP has 750 binaries, 700 generals, 0 SOSs, and 0 indicators.
Presolve time = 0.00 sec. (4.50 ticks)
Tried aggregator 1 time.
MIP Presolve modified 69 coefficients.
Reduced MIP has 902 rows, 1450 columns, and 4250 nonzeros.
Reduced MIP has 750 binaries, 700 generals, 0 SOSs, and 0 indicators.
Presolve time = 0.00 sec. (3.28 ticks)
Represolve time = 0.02 sec. (16.60 ticks)
    492     0     4427.1468   191     6060.0000     Cuts: 132    26171   26.94%
    492     0     4692.1573   191     6060.0000     Cuts: 176    26610   22.57%
    492     0     4803.6905   191     6060.0000     Cuts: 174    26883   20.73%
*   492+    0                         5794.0000     4803.6905            17.09%
*   492+    0                         5666.0000     4803.6905            15.22%
*   492+    0                         5485.0000     4803.6905            12.42%
    492     0  -1.00000e+75     0     5485.0000     4803.6905    26883   12.42%
    492     0     4861.5880   191     5485.0000     Cuts: 173    27201   11.37%
    492     0     4880.3790   191     5485.0000     Cuts: 108    27346   11.02%
    492     0     4884.6039   191     5485.0000      Cuts: 53    27523   10.95%
    492     0     4888.0430   191     5485.0000      Cuts: 76    27675   10.88%
    492     0     4888.7051   191     5485.0000      Cuts: 32    27700   10.87%
    492     0     4889.7371   191     5485.0000      Cuts: 27    27765   10.85%
    492     0     4890.9096   191     5485.0000      Cuts: 17    27847   10.83%
    492     0     4891.3409   191     5485.0000       Cuts: 9    27867   10.82%
    492     0     4891.3412   191     5485.0000   Flowcuts: 1    27868   10.82%
    492     0     4891.3412   191     5485.0000   LiftProj: 1    27871   10.82%
    492     0     4891.3412   191     5485.0000   Flowcuts: 1    27873   10.82%
    492     0     4891.5642   191     5485.0000       Cuts: 2    27907   10.82%
*   492+    0                         4898.0000     4891.5642             0.13%

Repeating presolve.
Tried aggregator 3 times.
MIP Presolve eliminated 726 rows and 1227 columns.
MIP Presolve modified 34 coefficients.
Aggregator did 35 substitutions.
Reduced MIP has 141 rows, 188 columns, and 485 nonzeros.
Reduced MIP has 104 binaries, 84 generals, 0 SOSs, and 0 indicators.
Presolve time = 0.00 sec. (1.75 ticks)
Tried aggregator 1 time.
MIP Presolve eliminated 5 rows and 8 columns.
MIP Presolve modified 61 coefficients.
Reduced MIP has 136 rows, 180 columns, and 467 nonzeros.
Reduced MIP has 99 binaries, 81 generals, 0 SOSs, and 0 indicators.
Presolve time = 0.00 sec. (0.29 ticks)
Tried aggregator 1 time.
MIP Presolve modified 24 coefficients.
Reduced MIP has 136 rows, 180 columns, and 467 nonzeros.
Reduced MIP has 99 binaries, 81 generals, 0 SOSs, and 0 indicators.
Presolve time = 0.00 sec. (0.34 ticks)
Represolve time = 0.02 sec. (22.90 ticks)
*   492     0      integral     0     4898.0000                  28113    0.00%

GUB cover cuts applied:  17
Cover cuts applied:  16
Implied bound cuts applied:  7
Flow cuts applied:  47
Mixed integer rounding cuts applied:  40
Zero-half cuts applied:  7
Lift and project cuts applied:  12
Gomory fractional cuts applied:  5

Root node processing (before b&c):
  Real time             =    0.44 sec. (453.70 ticks)
Sequential b&c:
  Real time             =    2.11 sec. (2511.57 ticks)
                          ------------
Total (root+branch&cut) =    2.55 sec. (2965.27 ticks)
SOLUTION:

x(0,71)[0..1]  = 1
x(6,14)[0..1]  = 1
x(12,23)[0..1]  = 1
x(12,69)[0..1]  = 1
x(14,25)[0..1]  = 1
x(17,35)[0..1]  = 1
x(26,41)[0..1]  = 1
x(27,86)[0..1]  = 1
x(28,42)[0..1]  = 1
x(31,44)[0..1]  = 1
x(36,57)[0..1]  = 1
x(36,92)[0..1]  = 1
x(46,56)[0..1]  = 1
x(48,91)[0..1]  = 1
x(52,61)[0..1]  = 1
x(56,62)[0..1]  = 1
x(56,84)[0..1]  = 1
x(64,94)[0..1]  = 1
x(70,97)[0..1]  = 1
x(76,88)[0..1]  = 1
x(76,89)[0..1]  = 1
x(88,90)[0..1]  = 1
x(91,98)[0..1]  = 1
x(94,95)[0..1]  = 1
x(96,99)[0..1]  = 1
x(56,2)[0..1]  = 1
x(32,6)[0..1]  = 1
x(66,9)[0..1]  = 1
x(79,12)[0..1]  = 1
x(16,15)[0..1]  = 1
x(94,16)[0..1]  = 1
x(27,17)[0..1]  = 1
x(61,26)[0..1]  = 1
x(97,27)[0..1]  = 1
x(36,28)[0..1]  = 1
x(38,30)[0..1]  = 1
x(96,31)[0..1]  = 1
x(61,32)[0..1]  = 1
x(86,36)[0..1]  = 1
x(95,38)[0..1]  = 1
x(66,46)[0..1]  = 1
x(96,48)[0..1]  = 1
x(93,52)[0..1]  = 1
x(97,64)[0..1]  = 1
x(71,66)[0..1]  = 1
x(88,70)[0..1]  = 1
x(84,76)[0..1]  = 1
x(99,79)[0..1]  = 1
x(96,93)[0..1]  = 1
x(97,96)[0..1]  = 1
z(2)[0..1]  = 1
z(6)[0..1]  = 1
z(9)[0..1]  = 1
z(12)[0..1]  = 1
z(14)[0..1]  = 1
z(15)[0..1]  = 1
z(16)[0..1]  = 1
z(17)[0..1]  = 1
z(23)[0..1]  = 1
z(25)[0..1]  = 1
z(26)[0..1]  = 1
z(27)[0..1]  = 1
z(28)[0..1]  = 1
z(30)[0..1]  = 1
z(31)[0..1]  = 1
z(32)[0..1]  = 1
z(35)[0..1]  = 1
z(36)[0..1]  = 1
z(38)[0..1]  = 1
z(41)[0..1]  = 1
z(42)[0..1]  = 1
z(44)[0..1]  = 1
z(46)[0..1]  = 1
z(48)[0..1]  = 1
z(52)[0..1]  = 1
z(56)[0..1]  = 1
z(57)[0..1]  = 1
z(61)[0..1]  = 1
z(62)[0..1]  = 1
z(64)[0..1]  = 1
z(66)[0..1]  = 1
z(69)[0..1]  = 1
z(70)[0..1]  = 1
z(71)[0..1]  = 1
z(76)[0..1]  = 1
z(79)[0..1]  = 1
z(84)[0..1]  = 1
z(86)[0..1]  = 1
z(88)[0..1]  = 1
z(89)[0..1]  = 1
z(90)[0..1]  = 1
z(91)[0..1]  = 1
z(92)[0..1]  = 1
z(93)[0..1]  = 1
z(94)[0..1]  = 1
z(95)[0..1]  = 1
z(96)[0..1]  = 1
z(97)[0..1]  = 1
z(98)[0..1]  = 1
z(99)[0..1]  = 1


CPLEX finished.

CPLEX status: Optimal
Branch-and-Bound nodes: 492
Objective value: 4898
CPU time: 2.54

